feasible solution found by trivial heuristic after 0.0 seconds, objective value 0.000000e+00
presolving:
   (0.1s) running MILP presolver
   (0.1s) MILP presolver found nothing
(round 1, exhaustive) 0 del vars, 0 del conss, 0 add conss, 0 chg bounds, 0 chg sides, 0 chg coeffs, 19137 upgd conss, 0 impls, 19137 clqs
   (0.2s) probing: 51/421 (12.1%) - 0 fixings, 0 aggregations, 0 implications, 0 bound changes
   (0.2s) probing aborted: 50/50 successive totally useless probings
   (0.3s) symmetry computation started: requiring (bin +, int -, cont +), (fixed: bin -, int +, cont -)
   (0.3s) no symmetry present
presolving (2 rounds: 2 fast, 2 medium, 2 exhaustive):
 0 deleted vars, 0 deleted constraints, 0 added constraints, 0 tightened bounds, 0 added holes, 0 changed sides, 0 changed coefficients
 0 implications, 19137 cliques
presolved problem has 421 variables (421 bin, 0 int, 0 impl, 0 cont) and 19138 constraints
  19137 constraints of type <setppc>
      1 constraints of type <linear>
Presolving Time: 0.29
transformed 1/1 original solutions to the transformed problem space

 time | node  | left  |LP iter|LP it/n|mem/heur|mdpt |vars |cons |rows |cuts |sepa|confs|strbr|  dualbound   | primalbound  |  gap   | compl. 
p 0.3s|     1 |     0 |     0 |     - |  clique|   0 | 421 |  19k|  19k|   0 |  0 |   0 |   0 | 3.795138e+02 | 1.307720e+01 |2802.10%| unknown
  0.5s|     1 |     0 |   462 |     - |    74M |   0 | 421 |  19k|  19k|   0 |  0 |   0 |   0 | 3.583402e+01 | 1.307720e+01 | 174.02%| unknown
  0.8s|     1 |     0 |   500 |     - |    77M |   0 | 421 |  19k|  19k|   2 |  1 |   0 |   0 | 3.483138e+01 | 1.307720e+01 | 166.35%| unknown
  1.2s|     1 |     0 |   551 |     - |    79M |   0 | 421 |  19k|  19k|   4 |  2 |   0 |   0 | 3.399844e+01 | 1.307720e+01 | 159.98%| unknown
  1.5s|     1 |     0 |   583 |     - |    81M |   0 | 421 |  19k|  19k|   7 |  3 |   0 |   0 | 3.352658e+01 | 1.307720e+01 | 156.37%| unknown
  1.8s|     1 |     0 |   670 |     - |    83M |   0 | 421 |  19k|  19k|  14 |  4 |   0 |   0 | 3.195150e+01 | 1.307720e+01 | 144.33%| unknown
  2.1s|     1 |     0 |   730 |     - |    85M |   0 | 421 |  19k|  19k|  22 |  5 |   0 |   0 | 3.119226e+01 | 1.307720e+01 | 138.52%| unknown
  2.4s|     1 |     0 |   784 |     - |    87M |   0 | 421 |  19k|  19k|  29 |  6 |   0 |   0 | 3.066444e+01 | 1.307720e+01 | 134.49%| unknown
  2.8s|     1 |     0 |   839 |     - |    90M |   0 | 421 |  19k|  19k|  36 |  7 |   0 |   0 | 3.031003e+01 | 1.307720e+01 | 131.78%| unknown
r 2.8s|     1 |     0 |   839 |     - |randroun|   0 | 421 |  19k|  19k|   0 |  7 |   0 |   0 | 3.031003e+01 | 1.440408e+01 | 110.43%| unknown
  3.2s|     1 |     0 |   911 |     - |    92M |   0 | 421 |  19k|  19k|  42 |  8 |   0 |   0 | 2.998320e+01 | 1.440408e+01 | 108.16%| unknown
i 3.2s|     1 |     0 |   911 |     - |  oneopt|   0 | 421 |  19k|  19k|  42 |  8 |   0 |   0 | 2.998320e+01 | 1.737402e+01 |  72.57%| unknown
  3.9s|     1 |     0 |   979 |     - |    96M |   0 | 421 |  19k|  19k|  44 |  9 |   0 |   0 | 2.985470e+01 | 1.737402e+01 |  71.84%| unknown
  4.6s|     1 |     0 |  1055 |     - |    99M |   0 | 421 |  19k|  19k|  51 | 10 |   0 |   0 | 2.948031e+01 | 1.737402e+01 |  69.68%| unknown
  4.6s|     1 |     0 |  1114 |     - |   101M |   0 | 421 |  19k|  19k|  57 | 11 |   0 |   0 | 2.922728e+01 | 1.737402e+01 |  68.22%| unknown
 time | node  | left  |LP iter|LP it/n|mem/heur|mdpt |vars |cons |rows |cuts |sepa|confs|strbr|  dualbound   | primalbound  |  gap   | compl. 
  4.7s|     1 |     0 |  1163 |     - |   103M |   0 | 421 |  19k|  19k|  61 | 12 |   0 |   0 | 2.912490e+01 | 1.737402e+01 |  67.63%| unknown
  4.7s|     1 |     0 |  1221 |     - |   105M |   0 | 421 |  19k|  19k|  67 | 13 |   0 |   0 | 2.897790e+01 | 1.737402e+01 |  66.79%| unknown
  4.7s|     1 |     0 |  1266 |     - |   107M |   0 | 421 |  19k|  19k|  72 | 14 |   0 |   0 | 2.891593e+01 | 1.737402e+01 |  66.43%| unknown
  4.8s|     1 |     0 |  1334 |     - |   109M |   0 | 421 |  19k|  19k|  77 | 15 |   0 |   0 | 2.876050e+01 | 1.737402e+01 |  65.54%| unknown
  4.8s|     1 |     0 |  1364 |     - |   111M |   0 | 421 |  19k|  19k|  80 | 16 |   0 |   0 | 2.870470e+01 | 1.737402e+01 |  65.22%| unknown
  4.8s|     1 |     0 |  1394 |     - |   113M |   0 | 421 |  19k|  19k|  84 | 17 |   0 |   0 | 2.864824e+01 | 1.737402e+01 |  64.89%| unknown
  4.9s|     1 |     0 |  1425 |     - |   115M |   0 | 421 |  19k|  19k|  86 | 18 |   0 |   0 | 2.861703e+01 | 1.737402e+01 |  64.71%| unknown
  4.9s|     1 |     0 |  1485 |     - |   117M |   0 | 421 |  19k|  19k|  90 | 19 |   0 |   0 | 2.853439e+01 | 1.737402e+01 |  64.24%| unknown
  4.9s|     1 |     0 |  1533 |     - |   119M |   0 | 421 |  19k|  19k|  95 | 20 |   0 |   0 | 2.841799e+01 | 1.737402e+01 |  63.57%| unknown
  5.0s|     1 |     0 |  1615 |     - |   119M |   0 | 421 |  19k|  19k| 101 | 21 |   0 |   0 | 2.826974e+01 | 1.737402e+01 |  62.71%| unknown
  5.0s|     1 |     0 |  1646 |     - |   119M |   0 | 421 |  19k|  19k| 104 | 22 |   0 |   0 | 2.825439e+01 | 1.737402e+01 |  62.62%| unknown
  5.0s|     1 |     0 |  1678 |     - |   119M |   0 | 421 |  19k|  19k| 108 | 23 |   0 |   0 | 2.823585e+01 | 1.737402e+01 |  62.52%| unknown
  5.1s|     1 |     0 |  1717 |     - |   119M |   0 | 421 |  19k|  19k| 110 | 24 |   0 |   0 | 2.819413e+01 | 1.737402e+01 |  62.28%| unknown
  5.1s|     1 |     0 |  1755 |     - |   119M |   0 | 421 |  19k|  19k| 113 | 25 |   0 |   0 | 2.816050e+01 | 1.737402e+01 |  62.08%| unknown
  5.1s|     1 |     0 |  1770 |     - |   119M |   0 | 421 |  19k|  19k| 115 | 26 |   0 |   0 | 2.815306e+01 | 1.737402e+01 |  62.04%| unknown
 time | node  | left  |LP iter|LP it/n|mem/heur|mdpt |vars |cons |rows |cuts |sepa|confs|strbr|  dualbound   | primalbound  |  gap   | compl. 
  5.1s|     1 |     0 |  1796 |     - |   120M |   0 | 421 |  19k|  19k| 116 | 27 |   0 |   0 | 2.812998e+01 | 1.737402e+01 |  61.91%| unknown
  5.2s|     1 |     0 |  1839 |     - |   120M |   0 | 421 |  19k|  19k| 121 | 28 |   0 |   0 | 2.808745e+01 | 1.737402e+01 |  61.66%| unknown
  5.2s|     1 |     0 |  1870 |     - |   120M |   0 | 421 |  19k|  19k| 125 | 29 |   0 |   0 | 2.805230e+01 | 1.737402e+01 |  61.46%| unknown
  5.2s|     1 |     0 |  1896 |     - |   120M |   0 | 421 |  19k|  19k| 129 | 30 |   0 |   0 | 2.803538e+01 | 1.737402e+01 |  61.36%| unknown
  5.3s|     1 |     0 |  1910 |     - |   120M |   0 | 421 |  19k|  19k| 133 | 31 |   0 |   0 | 2.802783e+01 | 1.737402e+01 |  61.32%| unknown
  5.3s|     1 |     0 |  1931 |     - |   120M |   0 | 421 |  19k|  19k| 136 | 32 |   0 |   0 | 2.802357e+01 | 1.737402e+01 |  61.30%| unknown
  5.3s|     1 |     0 |  1943 |     - |   120M |   0 | 421 |  19k|  19k| 137 | 33 |   0 |   0 | 2.802186e+01 | 1.737402e+01 |  61.29%| unknown
  5.3s|     1 |     0 |  1970 |     - |   121M |   0 | 421 |  19k|  19k| 142 | 34 |   0 |   0 | 2.800116e+01 | 1.737402e+01 |  61.17%| unknown
  5.4s|     1 |     0 |  2006 |     - |   121M |   0 | 421 |  19k|  19k| 148 | 35 |   0 |   0 | 2.797690e+01 | 1.737402e+01 |  61.03%| unknown
  5.4s|     1 |     0 |  2018 |     - |   121M |   0 | 421 |  19k|  19k| 150 | 36 |   0 |   0 | 2.796897e+01 | 1.737402e+01 |  60.98%| unknown
  5.4s|     1 |     0 |  2040 |     - |   121M |   0 | 421 |  19k|  19k| 153 | 37 |   0 |   0 | 2.795562e+01 | 1.737402e+01 |  60.90%| unknown
  5.5s|     1 |     0 |  2044 |     - |   121M |   0 | 421 |  19k|  19k| 154 | 38 |   0 |   0 | 2.795411e+01 | 1.737402e+01 |  60.90%| unknown
  5.5s|     1 |     0 |  2058 |     - |   121M |   0 | 421 |  19k|  19k| 158 | 39 |   0 |   0 | 2.794699e+01 | 1.737402e+01 |  60.86%| unknown
  5.5s|     1 |     0 |  2071 |     - |   122M |   0 | 421 |  19k|  19k| 161 | 40 |   0 |   0 | 2.793896e+01 | 1.737402e+01 |  60.81%| unknown
  5.5s|     1 |     0 |  2077 |     - |   122M |   0 | 421 |  19k|  19k| 163 | 41 |   0 |   0 | 2.793767e+01 | 1.737402e+01 |  60.80%| unknown
 time | node  | left  |LP iter|LP it/n|mem/heur|mdpt |vars |cons |rows |cuts |sepa|confs|strbr|  dualbound   | primalbound  |  gap   | compl. 
  5.6s|     1 |     0 |  2098 |     - |   122M |   0 | 421 |  19k|  19k| 167 | 42 |   0 |   0 | 2.792877e+01 | 1.737402e+01 |  60.75%| unknown
  5.6s|     1 |     0 |  2106 |     - |   122M |   0 | 421 |  19k|  19k| 168 | 44 |   0 |   0 | 2.792641e+01 | 1.737402e+01 |  60.74%| unknown
  5.6s|     1 |     0 |  2110 |     - |   122M |   0 | 421 |  19k|  19k| 171 | 46 |   0 |   0 | 2.792608e+01 | 1.737402e+01 |  60.73%| unknown
d 5.8s|     1 |     0 |  2552 |     - |farkasdi|   0 | 421 |  19k|  19k|   0 | 48 |   0 |   0 | 2.792608e+01 | 1.888249e+01 |  47.89%| unknown
d 5.8s|     1 |     0 |  2560 |     - |farkasdi|   0 | 421 |  19k|  19k|   0 | 48 |   0 |   0 | 2.792608e+01 | 1.899155e+01 |  47.04%| unknown
d 5.9s|     1 |     0 |  2882 |     - |conflict|   0 | 421 |  19k|  19k|   0 | 48 |  11 |   0 | 2.792608e+01 | 1.976469e+01 |  41.29%| unknown
L 6.8s|     1 |     0 |  2884 |     - |    rens|   0 | 421 |  19k|  19k| 171 | 48 |  15 |   0 | 2.792608e+01 | 2.412798e+01 |  15.74%| unknown
  6.8s|     1 |     0 |  2884 |     - |   123M |   0 | 421 |  19k|  19k| 171 | 48 |  15 |   0 | 2.792608e+01 | 2.412798e+01 |  15.74%| unknown
  6.9s|     1 |     0 |  2890 |     - |   123M |   0 | 421 |  19k|  19k| 174 | 49 |  15 |   0 | 2.792552e+01 | 2.412798e+01 |  15.74%| unknown
 10.0s|     1 |     2 |  2890 |     - |   123M |   0 | 421 |  19k|  19k| 174 | 50 |  15 |  55 | 2.765762e+01 | 2.412798e+01 |  14.63%| unknown
r23.1s|    52 |     7 |  5262 |  61.7 |rounding|  11 | 421 |  19k|  19k| 190 |  0 |  96 | 541 | 2.749140e+01 | 2.428699e+01 |  13.19%|  18.52%
r23.3s|    54 |     8 |  5334 |  60.7 |rounding|  13 | 421 |  19k|  19k| 190 |  0 | 102 | 563 | 2.749140e+01 | 2.438550e+01 |  12.74%|  18.57%
*23.3s|    56 |     8 |  5340 |  58.6 |    LP  |  14 | 421 |  19k|  19k| 190 |  1 | 102 | 567 | 2.749140e+01 | 2.445691e+01 |  12.41%|  18.57%
r26.8s|    90 |    10 |  6724 |  51.8 |ziroundi|  14 | 421 |  19k|  19k| 194 |  5 | 126 | 672 | 2.749140e+01 | 2.473286e+01 |  11.15%|  25.42%
 29.9s|   100 |    10 |  7158 |  50.9 |   150M |  14 | 421 |  19k|  19k| 213 |  9 | 133 | 699 | 2.749140e+01 | 2.473286e+01 |  11.15%|  25.53%
 time | node  | left  |LP iter|LP it/n|mem/heur|mdpt |vars |cons |rows |cuts |sepa|confs|strbr|  dualbound   | primalbound  |  gap   | compl. 
*30.2s|   110 |    12 |  7446 |  48.9 |strongbr|  17 | 421 |  19k|  19k| 213 |  1 | 140 | 729 | 2.749140e+01 | 2.474971e+01 |  11.08%|  25.53%
r31.1s|   120 |    11 |  7858 |  48.3 |simplero|  17 | 421 |  19k|  19k| 213 |  0 | 148 | 766 | 2.749140e+01 | 2.531631e+01 |   8.59%|  27.94%
r35.2s|   156 |    13 |  9249 |  46.0 |ziroundi|  19 | 421 |  19k|  19k| 238 |  1 | 169 | 842 | 2.749140e+01 | 2.544628e+01 |   8.04%|  36.25%
 38.0s|   200 |     7 | 10921 |  44.2 |   157M |  21 | 421 |  19k|  19k| 248 |  1 | 208 | 946 | 2.701812e+01 | 2.544628e+01 |   6.18%|  57.91%

SCIP Status        : problem is solved [optimal solution found]
Solving Time (sec) : 52.35
Solving Nodes      : 267
Primal Bound       : +2.54462809053523e+01 (402 solutions)
Dual Bound         : +2.54462809053523e+01
Gap                : 0.00 %
Solve Status: optimal
Solve Time: 52.35 seconds
